30
1 0 2
2 0 2
2 1 5
3 0 1
3 1 4
3 2 5
4 0 5
4 1 4
4 2 5
4 3 4
5 0 3
5 1 4
5 2 5
5 3 3
5 4 1
6 0 4
6 1 4
6 2 2
6 3 1
6 4 2
6 5 1
7 0 3
7 1 1
7 2 3
7 3 4
7 4 3
7 5 2
7 6 5
8 0 4
8 1 3
8 2 1
8 3 4
8 4 3
8 5 1
8 6 1
8 7 3
9 0 5
9 1 3
9 2 5
9 3 3
9 4 4
9 5 5
9 6 3
9 7 1
9 8 4
10 0 5
10 1 1
10 2 2
10 3 2
10 4 4
10 5 4
10 6 1
10 7 5
10 8 5
10 9 2
11 0 1
11 1 2
11 2 3
11 3 5
11 4 5
11 5 1
11 6 4
11 7 5
11 8 3
11 9 2
11 10 3
12 0 5
12 1 3
12 2 4
12 3 2
12 4 4
12 5 1
12 6 3
12 7 2
12 8 5
12 9 5
12 10 1
12 11 5
13 0 5
13 1 2
13 2 5
13 3 5
13 4 5
13 5 4
13 6 2
13 7 4
13 8 2
13 9 4
13 10 3
13 11 1
13 12 1
14 0 3
14 1 5
14 2 1
14 3 5
14 4 4
14 5 3
14 6 4
14 7 2
14 8 5
14 9 1
14 10 5
14 11 3
14 12 5
14 13 4
15 0 4
15 1 1
15 2 5
15 3 3
15 4 1
15 5 4
15 6 1
15 7 3
15 8 3
15 9 1
15 10 4
15 11 3
15 12 2
15 13 4
15 14 5
16 0 5
16 1 1
16 2 3
16 3 3
16 4 2
16 5 1
16 6 4
16 7 5
16 8 4
16 9 2
16 10 2
16 11 4
16 12 5
16 13 2
16 14 5
16 15 2
17 0 5
17 1 3
17 2 4
17 3 4
17 4 2
17 5 2
17 6 4
17 7 1
17 8 4
17 9 2
17 10 3
17 11 5
17 12 2
17 13 3
17 14 5
17 15 2
17 16 3
18 0 5
18 1 3
18 2 2
18 3 2
18 4 3
18 5 3
18 6 5
18 7 1
18 8 3
18 9 2
18 10 2
18 11 1
18 12 2
18 13 3
18 14 4
18 15 4
18 16 3
18 17 3
19 0 5
19 1 1
19 2 4
19 3 1
19 4 4
19 5 1
19 6 5
19 7 2
19 8 3
19 9 3
19 10 5
19 11 4
19 12 3
19 13 2
19 14 2
19 15 2
19 16 3
19 17 4
19 18 4
20 0 5
20 1 5
20 2 2
20 3 1
20 4 1
20 5 5
20 6 1
20 7 5
20 8 5
20 9 4
20 10 3
20 11 2
20 12 5
20 13 2
20 14 2
20 15 3
20 16 5
20 17 4
20 18 3
20 19 5
21 0 1
21 1 5
21 2 5
21 3 3
21 4 3
21 5 5
21 6 5
21 7 1
21 8 3
21 9 2
21 10 2
21 11 1
21 12 2
21 13 2
21 14 5
21 15 4
21 16 3
21 17 2
21 18 1
21 19 4
21 20 4
22 0 1
22 1 4
22 2 2
22 3 4
22 4 3
22 5 2
22 6 1
22 7 5
22 8 5
22 9 4
22 10 4
22 11 1
22 12 5
22 13 2
22 14 3
22 15 2
22 16 5
22 17 5
22 18 4
22 19 2
22 20 2
22 21 3
23 0 5
23 1 2
23 2 3
23 3 1
23 4 5
23 5 5
23 6 2
23 7 1
23 8 3
23 9 4
23 10 5
23 11 5
23 12 1
23 13 2
23 14 5
23 15 5
23 16 1
23 17 4
23 18 3
23 19 1
23 20 2
23 21 2
23 22 3
24 0 5
24 1 2
24 2 1
24 3 1
24 4 1
24 5 2
24 6 4
24 7 2
24 8 5
24 9 5
24 10 2
24 11 3
24 12 5
24 13 3
24 14 1
24 15 4
24 16 5
24 17 1
24 18 2
24 19 5
24 20 2
24 21 4
24 22 2
24 23 3
25 0 3
25 1 2
25 2 1
25 3 3
25 4 5
25 5 4
25 6 5
25 7 3
25 8 3
25 9 2
25 10 2
25 11 5
25 12 4
25 13 4
25 14 3
25 15 3
25 16 2
25 17 2
25 18 5
25 19 3
25 20 3
25 21 1
25 22 5
25 23 4
25 24 5
26 0 1
26 1 2
26 2 1
26 3 3
26 4 3
26 5 5
26 6 2
26 7 1
26 8 1
26 9 1
26 10 2
26 11 3
26 12 3
26 13 2
26 14 4
26 15 2
26 16 4
26 17 4
26 18 1
26 19 2
26 20 4
26 21 2
26 22 4
26 23 1
26 24 1
26 25 2
27 0 2
27 1 2
27 2 3
27 3 2
27 4 5
27 5 4
27 6 3
27 7 1
27 8 3
27 9 2
27 10 5
27 11 5
27 12 1
27 13 4
27 14 5
27 15 4
27 16 2
27 17 1
27 18 2
27 19 2
27 20 3
27 21 5
27 22 5
27 23 3
27 24 2
27 25 1
27 26 5
28 0 3
28 1 4
28 2 3
28 3 2
28 4 3
28 5 4
28 6 4
28 7 5
28 8 1
28 9 5
28 10 3
28 11 3
28 12 2
28 13 1
28 14 1
28 15 2
28 16 2
28 17 5
28 18 2
28 19 4
28 20 2
28 21 1
28 22 1
28 23 2
28 24 5
28 25 4
28 26 5
28 27 2
29 0 1
29 1 2
29 2 1
29 3 5
29 4 2
29 5 4
29 6 4
29 7 2
29 8 2
29 9 2
29 10 2
29 11 2
29 12 5
29 13 5
29 14 2
29 15 4
29 16 3
29 17 2
29 18 3
29 19 1
29 20 2
29 21 3
29 22 2
29 23 2
29 24 2
29 25 2
29 26 4
29 27 2
29 28 1
